
Gurobi 11.0.3 (linux64) logging started Fri Nov 22 17:01:31 2024

Set parameter LogFile to value "/home/yihong/Coding/OR_SUC/SUC_results_bigM100000_thread4/case24_ieee_rts_theta0.5_epsilon0.025_gurobi_seed790000_num_gen100_N_WDR100_load_scaling_factor1_proposed_T24quadra_cost.txt"
Set parameter TimeLimit to value 3600
Gurobi Optimizer version 11.0.3 build v11.0.3rc0 (linux64 - "Ubuntu 20.04.6 LTS")

CPU model: AMD EPYC 7532 32-Core Processor, instruction set [SSE2|AVX|AVX2]
Thread count: 64 physical cores, 128 logical processors, using up to 4 threads

Optimize a model with 51942 rows, 29861 columns and 708794 nonzeros
Model fingerprint: 0x1a080e4f
Model has 2400 quadratic constraints
Variable types: 27461 continuous, 2400 integer (2400 binary)
Coefficient statistics:
  Matrix range     [3e-04, 2e+03]
  QMatrix range    [2e-03, 8e-03]
  QLMatrix range   [8e-02, 6e+01]
  Objective range  [1e+00, 1e+00]
  Bounds range     [1e+00, 1e+00]
  RHS range        [1e+00, 9e+03]
Presolve removed 42113 rows and 12930 columns
Presolve time: 0.25s
Presolved: 9829 rows, 16931 columns, 61384 nonzeros
Presolved model has 2400 quadratic constraint(s)
Variable types: 14531 continuous, 2400 integer (2400 binary)

Root relaxation: objective 7.943515e+04, 8456 iterations, 0.22 seconds (0.31 work units)

    Nodes    |    Current Node    |     Objective Bounds      |     Work
 Expl Unexpl |  Obj  Depth IntInf | Incumbent    BestBd   Gap | It/Node Time

     0     0 79435.1454    0    -          - 79435.1454      -     -    0s
     0     0 424502.961    0  771          - 424502.961      -     -    1s
     0     0 676126.129    0  785          - 676126.129      -     -    1s
     0     0 676206.961    0  287          - 676206.961      -     -    1s
     0     0 676435.719    0  171          - 676435.719      -     -    1s
     0     0 676445.002    0  171          - 676445.002      -     -    1s
     0     0 676445.002    0  171          - 676445.002      -     -    1s
     0     0 676446.280    0  171          - 676446.280      -     -    1s
     0     2 676446.280    0  171          - 676446.280      -     -    2s
   419   489 676733.913  125    -          - 676466.087      -  15.1    5s
H  516   487                    677060.04577 676467.146  0.09%  16.2    5s
*  516   487             158    677060.04577 676467.146  0.09%  16.2    5s

Cutting planes:
  Gomory: 119
  Lift-and-project: 2
  Implied bound: 292
  MIR: 72
  Flow cover: 309
  RLT: 232

Explored 614 nodes (31359 simplex iterations) in 6.31 seconds (8.38 work units)
Thread count was 4 (of 128 available processors)

Solution count 2: 677060 677060 

Optimal solution found (tolerance 1.00e-03)
Warning: max constraint violation (5.9831e-07) exceeds tolerance
Best objective 6.770600457738e+05, best bound 6.764671462622e+05, gap 0.0876%
